Route #1: 67 77 2 17 69 105 64 94 57
Route #2: 96 29 72 34 11 99 74
Route #3: 49 21 85 54 13 40 31 63 82
Route #4: 104 1 53 87 60 51 100 45
Route #5: 5 101 28 97 93 103 43 76
Route #6: 14 58 88 91 36 8 48 83
Route #7: 7 75 84 9 12 15 44
Route #8: 62 26 90 24 102 92 52
Route #9: 33 22
Route #10: 78 19 27 37 79 71 46 66
Route #11: 86 18 41 10 16 20 56
Route #12: 35 73 32 3 23 42 30 89 59
Route #13: 55 98 4 70 6 81 50 39
Route #14: 25 47 61 80 65 38 95 68
Cost 26381
